
Gurobi 6.0.4 (win64) logging started 06/17/15 22:57:46

Read LP format model from file E:\Eigene Dateien\Downloads\Michi shit\VRPTWMS-master\VRPTWMS\instances\mip\fuel\N9-C_DV100-C_SV25_F5_8_No_1.lp
Reading time = 0.00 seconds
(null): 514 rows, 251 columns, 2154 nonzeros
Optimize a model with 514 rows, 251 columns and 2154 nonzeros
Model has 810 quadratic constraints
WARNING: Only barrier available for SOCP models
Coefficient statistics:
  Matrix range    [1e+00, 1e+06]
  Objective range [7e+04, 1e+07]
  Bounds range    [1e+00, 1e+06]
  RHS range       [1e+00, 1e+06]
Presolve removed 48 rows and 33 columns
Presolve time: 0.05s
Presolved: 1677 rows, 851 columns, 8446 nonzeros
Variable types: 578 continuous, 273 integer (225 binary)
Found heuristic solution: objective 9.403960e+07
Optimize a model with 1677 rows, 851 columns and 8446 nonzeros
Coefficient statistics:
  Matrix range    [1e+00, 1e+06]
  Objective range [7e+04, 1e+07]
  Bounds range    [1e+00, 1e+06]
  RHS range       [1e+00, 1e+06]

Concurrent LP optimizer: dual simplex and barrier
Showing barrier log only...

Presolve removed 159 rows and 103 columns
Presolved: 1518 rows, 751 columns, 7704 nonzeros

Root barrier log...

Ordering time: 0.02s

Barrier performed 0 iterations in 0.09 seconds
Barrier solve interrupted - model solved by another algorithm


Solved with dual simplex
Solved in 81 iterations and 0.09 seconds
Optimal objective  1.269977126e+07

Root relaxation: objective 1.269977e+07, 81 iterations, 0.03 seconds

    Nodes    |    Current Node    |     Objective Bounds      |     Work
 Expl Unexpl |  Obj  Depth IntInf | Incumbent    BestBd   Gap | It/Node Time

     0     0 1.2700e+07    0   28 9.4040e+07 1.2700e+07  86.5%     -    0s
H    0     0                    6.319200e+07 1.2700e+07  79.9%     -    0s
     0     0 2.1655e+07    0   44 6.3192e+07 2.1655e+07  65.7%     -    0s
     0     0 2.1867e+07    0   35 6.3192e+07 2.1867e+07  65.4%     -    0s
     0     0 2.1892e+07    0   20 6.3192e+07 2.1892e+07  65.4%     -    0s
     0     0 2.1893e+07    0   30 6.3192e+07 2.1893e+07  65.4%     -    0s
     0     0 2.1893e+07    0   29 6.3192e+07 2.1893e+07  65.4%     -    0s
     0     0 2.1894e+07    0   36 6.3192e+07 2.1894e+07  65.4%     -    0s
     0     0 2.1894e+07    0   29 6.3192e+07 2.1894e+07  65.4%     -    0s
     0     0 2.1894e+07    0   34 6.3192e+07 2.1894e+07  65.4%     -    0s
H    0     0                    5.308390e+07 2.1894e+07  58.8%     -    0s
     0     0 2.1894e+07    0   29 5.3084e+07 2.1894e+07  58.8%     -    0s
     0     0 2.1894e+07    0   34 5.3084e+07 2.1894e+07  58.8%     -    0s
     0     0 2.1894e+07    0   32 5.3084e+07 2.1894e+07  58.8%     -    0s
     0     2 2.1894e+07    0   32 5.3084e+07 2.1894e+07  58.8%     -    0s
H   67    59                    5.304590e+07 2.1964e+07  58.6%  16.5    0s
H  308   233                    5.284200e+07 2.1964e+07  58.4%  22.2    0s
*  313   228              25    4.275410e+07 2.1964e+07  48.6%  22.2    0s
H  479   321                    4.270340e+07 2.2017e+07  48.4%  19.4    0s
H  645   428                    4.269140e+07 2.2042e+07  48.4%  20.5    0s
H  735   462                    4.258990e+07 2.2067e+07  48.2%  20.6    0s
H  956   517                    3.328950e+07 2.2084e+07  33.7%  20.8    0s
H  965   517                    3.325150e+07 2.2084e+07  33.6%  20.8    0s
* 2049   597              29    3.294040e+07 2.2143e+07  32.8%  37.1    4s
* 2387   539              31    3.284170e+07 2.2197e+07  32.4%  39.3    4s
  2545   508 3.2309e+07   31    8 3.2842e+07 2.2210e+07  32.4%  40.0    5s
* 7771  1095              27    3.277160e+07 2.2795e+07  30.4%  49.3    9s
  7914  1061 infeasible   27      3.2772e+07 2.2815e+07  30.4%  49.6   10s

Cutting planes:
  Gomory: 3
  Cover: 2
  Implied bound: 13
  Clique: 5
  MIR: 3
  Flow cover: 8
  GUB cover: 1
  Zero half: 19

Explored 11757 nodes (624418 simplex iterations) in 13.57 seconds
Thread count was 4 (of 4 available processors)

Optimal solution found (tolerance 1.00e-04)
Warning: max constraint violation (7.0024e-06) exceeds tolerance
Best objective 3.277159999993e+07, best bound 3.277159999993e+07, gap 0.0000%
k_c1	1000000.0
k_c2	1000000.0
k_c3	849999.9999932077
k_c4	940000.0
k_c5	869999.9999999997
k_c6	850000.0000000147
k_c7	880000.0000000147
k_c8	949999.9999999997
k_c9	30000.0
k_dN	-0.0
o_1	-0.0
o_2	-0.0
o_3	-0.0
o_4	1.0
o_5	1.0
o_6	0.0
o_7	-0.0
o_8	-0.0
o_9	-0.0
p_1	-1.1102230246251565E-16
p_2	0.0
p_3	-1.1102230246251565E-16
p_4	1.0
p_5	1.0
p_6	0.0
p_7	-0.0
p_8	0.0
p_9	0.0
phi_c1	34486.0
phi_c2	41276.0
phi_c3	34655.00000044026
phi_c4	16410.000000000095
phi_c5	8355.000000000087
phi_c6	24351.999999998876
phi_c7	30104.999999998876
phi_c8	16410.000000000095
phi_c9	21783.0
phi_dN	-0.0
pi_c1	-0.0
pi_c2	-0.0
pi_c3	-0.0
pi_c4	75234.99999999983
pi_c5	41644.99999999991
pi_c6	-0.0
pi_c7	-0.0
pi_c8	221783.0
pi_c9	-0.0
pi_dN	-0.0
tauD_c1	250000.0000000004
tauD_c2	250000.0
tauD_c3	760499.999998266
tauD_c4	472499.9999960885
tauD_c5	607999.9999967646
tauD_c6	819000.0
tauD_c7	767500.0
tauD_c8	537899.9999967644
tauD_c9	848600.0000008172
tauD_d0	-0.0
tauD_dN	1000000.0
tauS_c1	862025.0
tauS_c2	887399.9999999999
tauS_c3	856250.0
tauS_c4	84925.00000059474
tauS_c5	607999.9999959243
tauS_c6	829000.0
tauS_c7	838875.0
tauS_c8	884650.0
tauS_c9	838600.0
tauS_d0	-0.0
tauS_dN	719324.9999959243
x_c1_c8	1.0
x_c2_c4	1.0
x_c3_c9	1.0000000000070024
x_c4_c7	0.9999999999999849
x_c5_c3	1.0000000000070024
x_c6_dN	0.9999999999999849
x_c7_c6	1.0
x_c8_c5	1.0
x_c9_dN	1.0000000000070024
x_d0_c1	1.0
x_d0_c2	1.0
z_c4_c5	1.0
z_c5_dN	1.0
z_d0_c4	1.0
